<?xml version="1.0" encoding="UTF-8"?>
<xrdMeasurements xmlns="http://www.xrdml.com/XRDMeasurement/1.0" xmlns:xsi="http://www.w3.org/2001/XMLSchema-instance" xsi:schemaLocation="http://www.xrdml.com/XRDMeasurement/1.0 http://www.xrdml.com/XRDMeasurement/1.0/XRDMeasurement.xsd" status="Completed">
	<sample type="To be analyzed">
		<id></id>
	</sample>
	<xrdMeasurement measurementType="Scan" status="Completed">
		<comment>
			<entry/>
		</comment>
		<usedWavelength intended="K-Alpha 1">
			<kAlpha1 unit="Angstrom">1.5405980</kAlpha1>
			<kAlpha2 unit="Angstrom">1.5444260</kAlpha2>
			<kBeta unit="Angstrom">1.3922500</kBeta>
			<ratioKAlpha2KAlpha1>0.5000</ratioKAlpha2KAlpha1>
		</usedWavelength>
		<incidentBeamPath>
			<radius unit="mm">200.00</radius>
			<xRayTube id="1010041" name="PW3373/00 Cu LFF DK401749">
				<tension unit="kV">45</tension>
				<current unit="mA">40</current>
				<anodeMaterial>Cu</anodeMaterial>
				<focus type="Line">
					<length unit="mm">12.0</length>
					<width unit="mm">0.4</width>
					<takeOffAngle unit="deg">6.0</takeOffAngle>
				</focus>
			</xRayTube>
			<sollerSlit id="21010002" name="Soller 0.04 rad.">
				<opening unit="rad">0.0400</opening>
			</sollerSlit>
			<mask id="22080003" name="Inc. Mask Fixed  15 mm (MPD/MRD)">
				<width unit="mm">11.60</width>
			</mask>
			<antiScatterSlit id="22010005" name="Slit Fixed 1/4°" xsi:type="fixedAntiScatterSlitType">
				<height unit="mm">0.38</height>
			</antiScatterSlit>
			<divergenceSlit id="22010004" name="Slit Fixed 1/2°" xsi:type="fixedDivergenceSlitType">
				<height unit="mm">0.76</height>
			</divergenceSlit>
		</incidentBeamPath>
		<diffractedBeamPath>
			<radius unit="mm">200.00</radius>
			<antiScatterSlit id="22010005" name="Slit Fixed 1/4°" xsi:type="fixedAntiScatterSlitType">
				<height unit="mm">0.38</height>
			</antiScatterSlit>
			<sollerSlit id="21010002" name="Soller 0.04 rad.">
				<opening unit="rad">0.0400</opening>
			</sollerSlit>
			<parallelPlateCollimator id="25010001" name="Coll. 0.27° (Thin film)">
				<opening unit="deg">0.27</opening>
			</parallelPlateCollimator>
			<monochromator id="23010016" name="Diff. Beam Flat graphite" hybrid="false">
				<crystal type="Symmetric" shape="Flat">C</crystal>
				<numberOfReflections>1</numberOfReflections>
				<hkl>
					<h>0</h>
					<k>0</k>
					<l>2</l>
				</hkl>
			</monochromator>
			<receivingSlit id="22010007" name="Slit Fixed 1/8°">
				<height unit="mm">0.19</height>
			</receivingSlit>
			<detector id="7010005" name="PW3011 (Miniprop. small window)" xsi:type="pointDetectorType">
				<phd>
					<lowerLevel unit="%">35.0</lowerLevel>
					<upperLevel unit="%">80.0</upperLevel>
				</phd>
			</detector>
		</diffractedBeamPath>
		<scan appendNumber="0" mode="Continuous" scanAxis="Gonio" status="Completed">
			<header>
				<startTimeStamp>2025-09-17T10:13:21-06:00</startTimeStamp>
				<endTimeStamp>2025-09-17T10:33:23-06:00</endTimeStamp>
				<author>
					<name>XRD_User</name>
				</author>
				<source>
					<applicationSoftware version="2.0e">X'Pert Data Collector</applicationSoftware>
					<instrumentControlSoftware version="2.8 ">XPERT-MPD</instrumentControlSoftware>
					<instrumentID>0000000013083126</instrumentID>
				</source>
			</header>
			<dataPoints>
				<positions axis="2Theta" unit="deg">
					<startPosition>10.010</startPosition>
					<endPosition>89.990</endPosition>
				</positions>
				<positions axis="Omega" unit="deg">
					<startPosition>5.0050</startPosition>
					<endPosition>44.9950</endPosition>
				</positions>
				<commonCountingTime unit="seconds">0.30</commonCountingTime>
				<intensities unit="counts">4 2 1 4 0 3 2 0 2 4 4 0 1 0 2 1 0 1 2 0 3 0 2 2 1 2 2 1 2 2 2 3 0 0 2 0 0 2 2 3 2 1 0 0 1 1 2 1 1 1 2 1 2 1 0 2 1 1 4 3 4 1 1 0 3 2 2 3 1 0 1 1 0 4 3 1 0 1 0 0 2 0 3 2 1 0 2 5 0 1 2 1 1 1 2 1 1 2 2 2 1 1 1 0 2 1 3 3 1 3 2 3 0 4 0 2 0 1 2 2 1 2 0 1 0 0 2 1 0 3 0 0 0 2 1 1 0 1 1 3 4 2 1 0 5 1 4 3 0 2 0 1 1 2 2 0 1 0 1 2 1 4 0 1 1 0 2 1 3 1 0 3 0 0 0 1 0 0 1 1 0 3 0 2 1 2 0 0 1 1 1 1 2 0 1 2 1 1 0 0 1 0 3 2 2 2 1 1 0 2 1 2 0 2 0 1 1 3 1 2 1 2 2 1 0 2 2 3 0 1 2 0 1 2 0 2 0 1 1 1 1 2 0 0 2 2 1 3 3 0 2 1 0 2 3 2 2 0 1 3 4 0 1 3 5 3 2 0 3 4 1 1 4 1 2 1 0 1 2 2 1 2 1 0 4 0 1 2 0 1 3 0 1 1 1 0 3 1 4 1 1 3 2 0 3 2 2 4 2 1 4 3 2 2 0 1 2 6 1 1 0 0 0 3 0 4 3 0 2 1 2 1 0 2 2 1 0 2 2 0 1 0 1 0 2 1 0 3 1 0 2 0 0 0 1 2 1 2 1 0 2 1 1 0 0 0 1 3 1 0 1 1 1 3 2 2 6 5 7 2 8 5 7 9 9 14 18 13 24 23 34 22 17 24 15 8 4 6 4 3 1 3 1 3 0 2 3 0 1 0 2 1 1 0 0 0 1 2 0 1 2 1 2 0 2 2 2 1 2 0 1 0 2 0 1 1 0 1 0 1 2 0 2 3 2 0 2 2 1 0 5 1 2 2 0 1 1 0 0 3 2 4 0 1 0 1 1 2 0 0 1 1 2 1 2 1 0 0 0 0 2 2 0 0 1 0 1 2 1 0 1 2 1 0 1 1 3 0 0 1 2 3 1 0 0 1 1 1 0 0 1 0 0 0 1 3 1 1 1 0 1 3 1 1 1 0 0 1 2 1 1 0 1 1 0 1 2 2 1 1 2 2 1 0 1 1 3 2 2 4 2 4 4 1 4 5 11 12 14 18 8 9 10 4 5 1 1 3 2 1 2 1 1 3 3 4 2 2 0 1 2 1 0 1 1 1 0 3 3 0 1 3 1 0 3 4 2 0 5 1 4 4 1 1 2 1 2 0 0 0 1 1 1 1 1 2 1 3 1 1 0 1 1 2 1 1 0 1 0 3 1 1 1 1 2 2 2 4 0 2 2 0 1 0 1 3 4 1 3 2 2 3 4 4 3 5 5 1 7 0 2 2 1 2 2 5 5 1 2 2 3 1 2 2 3 3 0 2 1 1 0 0 2 0 1 1 0 2 5 3 7 3 9 14 14 18 13 32 22 30 53 45 61 55 65 59 60 45 26 24 14 10 8 3 10 2 0 2 3 4 4 4 0 2 0 2 1 1 0 2 0 2 1 0 2 2 1 2 0 1 3 1 1 1 2 1 0 2 2 1 0 1 3 0 0 0 0 0 0 5 0 1 1 0 1 3 1 0 1 1 3 0 1 4 2 4 8 4 9 6 6 3 9 8 4 3 2 3 1 1 2 1 0 1 0 0 2 0 0 0 1 2 6 3 5 6 4 8 4 3 2 4 1 2 2 3 0 2 1 2 2 1 0 1 3 1 1 1 0 2 0 0 1 0 0 3 2 1 1 1 1 0 1 0 2 0 1 1 3 1 3 0 0 1 0 0 1 0 0 2 1 0 4 2 2 1 2 1 2 2 1 2 3 2 2 2 3 2 4 6 3 7 7 0 14 5 8 3 5 8 5 3 2 5 5 4 2 1 3 1 0 2 3 2 1 1 0 0 0 5 0 1 0 4 2 4 1 3 2 2 5 5 0 4 5 2 2 1 4 3 3 1 3 3 2 3 2 5 5 6 6 8 6 11 15 14 35 30 58 47 71 101 103 112 107 88 88 62 41 50 23 13 10 8 6 12 6 4 6 5 6 4 9 7 3 5 3 3 0 4 0 3 0 1 1 0 1 0 0 2 2 0 1 0 1 4 2 3 2 5 1 5 1 2 3 2 2 1 1 2 0 0 1 2 2 0 2 2 2 1 1 1 2 0 1 1 2 1 1 1 0 2 2 0 2 0 1 1 2 1 2 3 4 3 4 5 5 2 5 5 7 4 11 20 18 21 27 44 68 75 98 97 149 186 192 218 150 142 106 78 63 29 15 14 12 11 8 4 6 6 3 7 4 5 3 2 2 5 2 3 4 7 6 5 13 9 11 11 11 8 18 15 16 13 12 6 6 12 4 7 6 1 7 8 9 7 10 9 16 18 17 26 34 31 44 26 18 18 13 8 8 3 1 3 2 3 3 0 2 6 2 3 2 2 1 1 0 0 2 2 1 2 1 6 6 8 3 6 7 4 1 5 4 2 1 1 4 1 3 1 1 1 3 0 1 3 1 1 0 0 0 1 1 1 0 0 0 0 3 2 0 1 0 2 2 1 0 0 1 1 2 2 0 1 1 2 0 2 1 0 1 1 1 1 0 1 1 3 0 2 2 0 0 2 2 12 7 3 4 7 6 3 2 2 3 3 1 1 3 0 0 3 0 0 3 0 0 0 0 1 0 1 4 0 1 2 0 1 4 1 0 2 2 1 0 1 0 0 0 1 1 1 1 0 0 0 0 3 3 1 0 3 1 1 1 2 0 3 2 4 0 6 4 8 16 15 15 16 14 7 7 7 7 3 3 2 7 4 8 7 12 11 10 14 15 21 36 51 59 68 78 66 62 49 43 29 27 18 17 16 11 13 8 6 3 0 1 8 2 0 0 2 0 2 1 3 1 5 4 5 4 3 7 3 4 12 9 11 19 24 17 20 19 23 19 15 15 14 2 3 5 1 3 2 3 5 0 2 2 4 3 6 3 9 7 11 6 10 18 19 10 13 12 9 7 3 4 7 2 2 3 1 1 0 1 1 1 2 1 0 1 0 2 1 1 2 1 3 2 2 3 0 1 1 2 2 3 0 3 1 4 2 0 1 2 3 1 0 0 2 3 5 4 2 5 2 4 5 17 14 16 23 18 8 11 21 11 7 1 2 0 0 1 4 3 2 2 2 4 3 3 2 2 8 8 13 12 11 12 11 8 8 9 7 4 2 3 3 2 3 2 1 2 3 2 1 0 0 1 1 2 3 2 1 2 1 0 0 0 2 0 1 0 3 2 3 0 0 0 0 2 2 2 2 2 3 3 3 3 5 6 3 9 13 9 12 23 19 11 7 10 12 9 11 7 10 4 2 1 4 2 2 3 0 2 0 2 1 4 2 1 0 1 0 2 2 0 1 0 2 0 4 1 0 2 1 3 0 1 1 2 0 0 0 2 1 1 0 1 0 2 2 2 1 1 1 0 2 1 3 0 0 3 0 0 1 1 1 1 3 3 3 3 1 2 2 1 0 2 0 0 0 3 3 1 1 1 1 1 0 1 1 0 1 1 0 3 1 2 2 2 3 0 1 2 3 3 2 3 5 1 1 1 0 2 2 2 2 3 0 0 2 0 0 1 1 1 1 2 2 0 0 1 0 3 0 1 1 0 1 1 1 3 1 0 1 2 1 0 2 1 2 1 2 1 4 2 2 1 2 0 0 2 1 0 4 1 0 1 3 3 3 3 2 2 4 0 2 6 9 5 8 6 17 11 17 25 28 28 19 17 12 13 10 9 9 8 4 2 1 1 2 1 2 2 0 3 1 1 3 1 1 1 1 0 2 2 2 3 2 1 2 2 2 2 2 3 0 3 0 2 1 4 2 2 2 3 6 7 3 6 6 7 7 2 2 6 5 1 10 2 3 1 3 8 2 7 2 3 3 0 4 1 3 6 2 0 0 3 4 0 0 2 0 0 3 1 3 2 2 3 4 2 2 6 7 5 4 2 1 1 2 1 3 3 1 5 1 2 1 1 5 2 9 3 5 2 4 6 4 5 4 3 2 4 3 0 5 0 2 3 0 2 1 3 4 2 2 4 3 1 2 0 2 1 3 1 1 0 1 0 0 3 0 2 1 1 0 1 1 3 1 3 0 4 4 7 9 8 11 10 16 7 7 10 2 7 5 2 5 4 3 3 0 1 2 3 3 5 3 4 8 2 2 0 6 2 5 2 4 1 1 4 3 1 2 0 1 3 0 1 0 0 3 2 5 7 4 11 4 7 14 10 15 18 17 18 15 11 11 14 8 16 10 8 10 1 9 4 6 3 4 5 9 9 7 4 8 4 7 10 5 9 8 4 3 6 5 8 9 5 2 7 7 6 7 6 5 4 4 2 2 3 4 9 4 10 8 8 5 3 4 4 5 4 3 2 1 2 2 1 2 3 0 3 1 5 4 4 4 2 4 2 2 2 3 4 2 5 4 7 1 3 0 3 4 3 3 5 4 2 1 5 2 4 4 2 4 3 2 0 3 1 1 0 1 2 4 2 4 7 11 9 15 20 7 17 17 17 16 10 19 14 11 10 18 12 14 9 8 8 6 20 10 20 24 38 53 67 71 56 52 38 26 35 38 40 30 20 21 17 12 18 17 18 15 16 31 42 26 25 11 20 22 24 20 12 14 2 8 7 5 4 5 1 4 1 2 3 1 3 2 8 4 9 4 11 14 15 16 8 9 12 7 6 4 12 8 2 4 4 4 2 3 4 4 1 3 2 0 1 3 4 1 2 2 3 2 3 1 3 1 4 3 1 1 3 3 0 2 0 2 2 0 1 2 2 1 2 3 1 1 2 2 1 0 1 1 0 0 3 5 2 4 2 2 2 0 0 4 1 5 0 0 0 3 1 1 3 1 0 0 1 3 3 0 0 1 4 0 2 1 3 3 2 4 0 1 1 0 1 2 1 2 2 2 1 1 1 0 4 0 4 2 2 1 1 3 1 2 1 1 1 0 4 1 2 5 1 2 3 7 15 4 7 7 6 8 5 2 4 1 7 8 3 3 3 3 7 2 5 2 2 6 6 8 5 2 9 6 4 5 1 6 4 7 4 5 3 1 5 0 2 4 7 0 3 1 1 1 3 2 2 2 2 2 0 1 3 0 3 3 2 2 3 4 1 0 2 2 2 3 1 1 0 2 1 3 0 4 4 3 1 5 2 3 5 3 2 4 5 3 3 3 3 0 3 4 6 7 7 6 12 8 9 9 4 5 7 8 9 4 1 6 2 1 1 2 1 3 2 1 2 3 2 0 1 0 0 0 1 0 3 1 2 1 1 1 2 0 1 2 1 0 2 0 0 3 4 1 0 1 2 3 1 2 4 0 0 2 1 1 1 1 3 0 1 1 0 4 1 1 1 1 1 0 0 1 1 6 2 0 0 1 3 0 0 0 1 0 0 1 1 2 1 0 1 1 1 1 1 3 0 1 0 0 0 0 2 0 1 2 0 0 0 1 0 2 3 1 2 5 0 4 4 2 4 5 4 5 7 13 14 7 8 12 6 6 7 9 8 6 8 4 3 5 7 1 4 1 3 0 3 3 3 3 4 5 3 3 0 1 0 3 2 2 1 3 1 0 2 1 2 0 3 2 1 2 2 0 0 0 3 1 5 3 4 4 3 1 4 6 10 12 15 9 9 12 13 7 9 7 5 7 6 11 6 2 3 3 3 4 3 2 2 0 1 3 1 1 1 2 0 4 1 2 1 1 4 5 2 1 0 1 2 0 4 0 0 1 2 1 2 2 4 2 0 1 1 0 1 1 1 1 0 1 2 4 1 0 0 0 1 1 3 1 0 0 1 0 0 0 1 2 2 3 0 0 3 1 2 2 4 5 3 9 4 12 12 15 14 18 10 8 12 7 5 9 11 5 11 11 2 8 3 2 0 2 5 2 2 1 1 6 0 0 1 0 2 0 1 2 2 2 2 1 3 3 4 2 3 4 2 1 0 4 2 1 1 1 4 2 5 6 1 4 1 0 4 3 0 2 0 4 3 1 2 0 1 1 0 0 2 1 2 4 2 3 11 6 4 16 15 10 6 7 5 8 3 12 13 11 10 11 10 6 11 7 3 6 3 8 8 9 4 1 6 2 1 2 3 1 0 0 4 1 1 0 1 0 1 1 1 2 1 1 2 1 3 0 0 1 0 3 2 0 0 1 1 4 3 0 1 3 2 0 5 3 3 3 4 4 3 5 7 6 5 4 1 6 1 3 3 4 3 1 2 0 5 1 3 0 5 2 2 6 1 0 3 6 1 4 9 15 12 12 22 12 8 7 6 12 12 5 8 4 4 8 3 3 3 3 6 5 2 3 2 2 6 6 4 5 7 11 10 15 8 9 8 9 12 6 8 8 15 5 6 8 5 5 10 4 5 3 3 1 3 1 0 1 3 0 1 4 2 0 2 1 1 0 1 1 2 1 0 2 0 1 2 0 0 0 1 1 2 0 1 1 0 3 2 1 0 2 0 1 1 1 0 0 1 5 0 1 1 5 1 1 1 3 1 2 2 1 0 1 0 0 0 2 2 2 1 1 0 0 2 3 1 0 1 0 0 2 1 1 2 1 1 1 0 1 1 0 0 2 0 1 1 0 0 1 5 0 5 3 3 7 4 5 9 1 4 2 5 3 3 1 5 2 3 3 3 1 3 3 3 7 6 5 8 5 10 6 8 5 4 6 3 3 5 3 13 3 6 4 4 3 5 5 3 2 5 0 4 2 2 2 2 1 7 6 4 1 3 3 2 0 2 2 2 1 1 3 0 1 0 1 0 1 0 0 0 1 3 1 1 1 0 1 1 3 2 1 3 2 2 2 2 2 0 2 2 1 3 1 3 2 0 9 3 3 4 5 2 2 3 4 6 7 5 10 7 11 7 6 4 6 7 9 9 3 6 5 8 6 2 4 6 0 2 4 0 0 1 2 5 0 1 1 1 2 4 1 3 0 2 1 2 0 0 0 2 3 3 3 0 1 1 0 1 3 1 2 0 1 1 1 2 2 3 5 1 2 5 4 0 1 1 1 0 2 1 3 0 2 2 1 1 1 1 1 0 2 1 1 1 0 2 0 1 0 2 1 2 2 1 1 2 3 0 2 1 1 2 2 0 0 2 2 2 0 0 3 2 5 1 8 4 4 4 1 5 0 1 2 2 2 0 4 2 1 0 1 1 2 1 0 4 0 3 0 0 3 2 0 2 1 2 1 1 2 5 4 3 1 3 2 3 3 3 1 4 3 3 5 6 4 11 7 10 8 8 14 5 15 12 8 7 6 2 9 3 4 7 5 4 5 4 6 3 2 1 2 5 4 1 3 2 2 5 3 4 2 3 4 4 1 1 3 2 2 2 3 4 5 3 4 0 0 4 3 4 1 5 3 7 3 8 6 5 10 4 7 2 3 8 5 4 1 8 3 3 2 3 1 6 4 2 2 3 2 0 1 0 0 1 4 0 1 2 0 1 0 1 2 3 2 3 0 2 1 1 1 2 0 1 0 0 1 2 2 3 2 7 1 0 2 2 2 0 3 3 2 1 1 3 4 5 0 2 0 2 1 3 0 1 1 1 1 2 3 1 3 0 4 1 3 2 0 1 2 1 0 0 3 1 0 0 0 4 2 2 4 4 4 3 0 0 3 3 3 4 2 1 4 0 0 1 2 2 1 0 2 6 1 2 0 1 2 3 2 4 3 1 2 2 4 3 7 9 5 5 14 8 6 8 5 4 4 3 2 7 3 5 3 3 1 1 3 2 2 2 0 2 2 1 2 1 3 1 0 0 1 0 3 0 1 0 1 1 1 0 0 0 1 1 1 1 3 4 3 1 2 2 1 4 4 5 5 7 3 2 3 1 5 3 5 1 4 5 8 7 4 7 4 9 4 5 4 1 3 3 2 6 4 1 1 6 5 3 2 2 1 3 1 1 1 2 2 0 1 1 4 2 2 1 2 1 1 2 2 1 3 0 1 1 4 1 1 2 2 1 0 2 2 1 0 1 0 1 3 3 1 4 0 2 1 2 2 4 2 3 1 1 4 4 5 1 2 2 0 1 0 1 2 2 3 1 4 2 1 0 2 2 1 0 2 3 2 2 2 1 2 0 2 0 0 1 2 0 3 3 1 10 4 6 6 4 7 5 4 2 2 4 1 5 0 4 5 4 5 7 1 2 1 3 0 2 3 1 3 2 1 1 0 1 2 1 0 0 1 0 0 1 0 0 1 2 0 0 1 2 2 2 3 0 0 1 4 0 1 1 3 3 2 3 0 3 0 2 3 5 2 6 4 6 5 3 4 3 8 2 4 5 2 5 3 3 5 4 0 4 1 1 4 1 0 3 0 1 3 4 0 1 1 3 1 0 2 2 3 2 1 2 3 2 2 3 3 2 1 3 5 5 2 5 9 5 13 8 10 5 6 5 4 5 8 3 7 7 6 6 8 4 7 4 2 2 4 2 3 2 2 2 3 2 3 3 1 0 1 0 0 2 1 0 1 1 0 0 2 2 1 1 0 2 1 2 1 2 1 3 2 3 4 12 9 5 6 4 1 2 6 1 2 1 3 2 4 2 2 6 3 3 0 1 0 2 2 1 1 1 2 2 1 1 0 1 2 1 4 3 0 3 1 3 1 2 2 2 2 2 0 2 3 2 0 2 1 1 2 2 4 2 2 1 2 1 1 2 1 0 1 0 0 1 2 1 2 2 0 2 1 0 0 2 0 1 0 1 2 1 1 1 2 0 0 2 0 2 2 0 2 8 1 3 1 3 2 2 4 3 2 2 4 4 1 4 3 1 2 0 6 2 1 2 0 0 1 2 1 5 2 1 2 0 2 1 3 1 2 0 3 2 1 0 1 0 0</intensities>
			</dataPoints>
		</scan>
	</xrdMeasurement>
</xrdMeasurements>
